%chk=molecule.chk
%nproc=4
# hf/3-21g force 

Part[0]Frag

0 1
C         -8.469000      -2.706000      -1.043000
H         -5.490000      -7.241000      -4.023000
N         -8.849000      -1.563000       2.232000
N         -8.589000      -2.819000       0.307000
N         -8.719000      -0.435000       0.225000
C         -8.719000      -1.637000       0.906000
C         -8.599000      -0.295000      -1.168000
O         -8.619000       0.828000      -1.669000
P         -6.669000      -6.046000      -6.092000
O         -7.459000      -5.069000      -6.875000
O         -6.889000      -7.469000      -6.420000
H         -4.798000      -4.724000      -7.428000
H         -5.218000      -5.606000      -3.332000
H         -6.086000      -7.503000      -1.793000
H         -12.121000     -4.704000       2.651000
O         -10.299000     -5.430000       2.007000
H         -11.268000     -3.076000      -3.678000
H         -12.004000     -0.939000       0.228000
C         -11.659000     -5.134000       1.752000
N         -11.709000     -4.125000       0.662000
C         -11.489000     -7.465000       2.112000
H         -12.400000     -6.608000       0.329000
H         -13.392000     -6.451000       1.820000
H         -9.466000      -7.209000       2.795000
C         -5.609000      -3.696000      -5.684000
O         -5.119000      -6.042000      -5.861000
H         -10.780000     -4.743000      -3.221000
H         -11.558000     -8.451000       1.626000
H         -11.487000     -5.565000      -0.895000
O         -6.919000      -5.804000      -4.534000
C         -12.369000     -6.438000       1.416000
H         -8.868000      -8.192000       0.777000
O         -10.839000     -7.908000      -2.796000
O         -10.299000     -7.261000      -0.430000
C         -11.809000     -2.196000      -1.356000
H         -2.706000      -5.270000      -5.813000
C         -9.359000      -7.213000       0.674000
H         -5.641000      -2.778000      -6.290000
H         -6.632000      -4.070000      -5.530000
C         -5.979000      -6.361000      -3.581000
C         -8.109000      -7.348000      -2.514000
C         -3.329000      -4.363000      -5.864000
C         -6.709000      -6.770000      -2.320000
O         -8.499000      -8.178000      -1.417000
C         -4.729000      -4.750000      -6.335000
C         -8.279000      -5.195000      -1.550000
C         -8.989000      -6.110000      -2.537000
C         -8.249000      -3.174000      -3.170000
N         -8.329000      -3.756000      -1.920000
C         -8.469000      -1.552000      -1.804000
N         -8.329000      -1.868000      -3.156000
N         -11.899000     -1.903000      -0.016000
C         -11.659000     -3.601000      -1.647000
O         -11.859000     -1.299000      -2.207000
C         -11.609000     -4.511000      -0.652000
H         -12.596000     -8.206000       3.557000
O         -11.949000     -2.451000       2.190000
C         -11.859000     -2.804000       1.029000
O         -10.269000     -9.682000      -1.116000
P         -10.049000     -8.307000      -1.609000
H         -8.949000      -0.644000       2.690000
H         -8.848000      -2.422000       2.800000
H         -8.811000       0.401000       0.766000
H         -8.129000      -3.751000      -4.087000
H         -8.178000      -7.918000      -3.448000
H         -10.012000     -6.341000      -2.204000
H         -9.021000      -5.665000      -3.543000
H         -8.741000      -5.320000      -0.560000
H         -8.599000      -6.443000       0.474000
O         -6.919000      -5.581000      -1.494000
O         -11.879000     -7.573000       3.477000
C         -11.549000     -3.967000      -3.096000
C         -10.089000     -6.877000       1.956000
H         -12.517000     -4.346000      -3.455000
H         -2.820128      -3.651973      -6.445369
H         -3.479542      -3.970157      -4.901965
H         -5.119072      -3.533151      -4.769697
