%chk=part0_1.chk
%nproc=6
# hf/3-21g force 

Part[0, 1]Frag

0 1
H          0.743000      -1.629000      -0.701000
C         -4.896000       0.227000      -0.585000
C         -4.694000       0.777000       0.681000
O         -4.455000      -1.055000      -0.857000
O         -3.448000      -3.460000      -0.296000
C         -2.550000      -2.463000      -0.588000
H         -2.673000       0.873000      -1.341000
C         -2.241000      -0.097000      -1.128000
H         -4.272000       0.149000       1.459000
C         -1.152000      -2.595000      -0.545000
O         -3.096000      -4.522000      -2.274000
C         -3.286000      -4.732000      -0.883000
H         -2.420000      -5.252000      -0.458000
C         -0.860000      -0.243000      -1.061000
C         -0.326000      -1.497000      -0.780000
C         -3.073000      -1.187000      -0.864000
H         -4.921000       2.131000       0.907000
H         -5.472000       1.015000      -1.587000
H         -0.620000      -3.837000      -0.226000
H          0.076000       0.933000      -1.336000
H         -4.583000      -5.530000      -0.666000
H         -2.889000      -5.723000      -3.029000

