%chk=molecule.chk
%nproc=4
# hf/3-21g force 

Part[2]Frag

0 1
C         -5.869000       2.304000       4.451000
C         -2.309000       0.897000       2.947000
N         -2.219000      -0.278000       2.243000
C         -7.409000       0.354000       7.589000
P         -4.069000      -0.811000       8.819000
H         -9.319000       5.848000       7.277000
H         -5.097000       1.865000       6.930000
C         -2.509000      -0.508000       4.916000
H         -2.370000      -5.540000       5.564000
H         -8.031000      -0.379000       8.116000
P         -7.449000       4.158000       8.105000
O         -7.229000       4.015000       9.558000
O         -6.659000       5.211000       7.428000
O         -7.199000       2.759000       7.379000
C         -8.139000       1.679000       7.602000
C         -5.519000       1.325000       1.086000
O         -5.499000       2.156000       0.180000
C         -5.649000       0.435000       3.330000
H         -8.628000       1.818000       8.578000
N         -5.269000      -2.302000       1.203000
N         -5.529000      -0.881000       3.006000
O         -3.819000      -3.321000       4.941000
N         -5.789000       0.935000       4.605000
O         -3.819000      -1.596000       7.452000
C         -2.459000      -2.985000       4.743000
H         -5.518000      -2.190000       6.389000
N         -5.399000      -0.042000       0.773000
C         -4.759000      -2.625000       7.055000
C         -9.389000       4.796000       6.958000
O         -8.999000       3.941000       8.026000
C         -10.789000      4.473000       6.440000
H         -5.249000      -3.035000       7.952000
C         -5.129000       0.769000       7.033000
H         -2.113000      -0.202000       1.251000
H         -5.168000      -2.445000       0.187000
C         -2.629000      -4.070000       6.837000
O         -7.199000      -0.050000       6.199000
H         -5.269000      -3.114000       1.837000
C         -5.839000       0.125000       5.851000
C         -6.009000       0.345000       8.199000
N         -2.409000      -1.631000       4.132000
C         -5.399000      -1.068000       1.695000
O         -3.279000       0.441000       8.820000
H         -4.651000      -4.634000       6.376000
H         -1.996000      -3.700000       4.047000
H         -1.717000      -2.106000       6.592000
H         -0.725000      -3.470000       5.969000
H         -2.559000      -3.923000       7.926000
H         -2.630000      -0.614000       5.994000
H         -1.600000       2.201000       5.654000
H         -3.337000       1.853000       5.956000
H         -2.849000       2.818000       4.522000
H         -5.376000      -0.858000       5.652000
H         -5.939000       1.058000       9.036000
H         -4.105000       0.381000       7.145000
H         -5.306000      -0.288000      -0.192000
H         -5.988000       2.989000       5.290000
C         -5.649000       1.527000       2.479000
N         -5.789000       2.707000       3.210000
C         -2.459000       0.725000       4.372000
H         -7.485000       4.256000       6.051000
H         -8.477000       5.389000       5.070000
O         -2.259000       1.989000       2.368000
H         -11.411000      4.142000       7.280000
H         -8.898000       1.684000       6.807000
O         -3.849000      -1.717000       9.966000
C         -1.749000      -3.083000       6.086000
C         -2.569000       1.981000       5.180000
O         -2.239000      -5.397000       6.504000
O         -2.169000      -2.545000       2.058000
C         -4.029000      -3.733000       6.329000
O         -5.619000      -0.951000       8.636000
C         -8.509000       4.522000       5.748000
C         -2.259000      -1.558000       2.764000
H         -11.295649      5.251713       5.950702
H         -10.638226      3.689695       5.757211
H         -8.998712       3.707423       5.301741
