%chk=molecule.chk
%nproc=4
# hf/3-21g force 

Part[0, 1]Frag

0 1
O         -6.919000      -5.581000      -1.494000
H         -5.490000      -7.241000      -4.023000
H         -6.632000      -4.070000      -5.530000
C         -5.979000      -6.361000      -3.581000
O         -6.919000      -5.804000      -4.534000
C         -6.709000      -6.770000      -2.320000
P         -6.669000      -6.046000      -6.092000
H         -8.178000      -7.918000      -3.448000
O         -7.459000      -5.069000      -6.875000
O         -6.889000      -7.469000      -6.420000
H         -4.798000      -4.724000      -7.428000
H         -5.218000      -5.606000      -3.332000
H         -6.086000      -7.503000      -1.793000
C         -8.109000      -7.348000      -2.514000
H         -2.706000      -5.270000      -5.813000
H         -5.641000      -2.778000      -6.290000
C         -5.609000      -3.696000      -5.684000
O         -5.119000      -6.042000      -5.861000
C         -4.729000      -4.750000      -6.335000
C         -3.329000      -4.363000      -5.864000
H         -2.820128      -3.651973      -6.445369
H         -3.479542      -3.970157      -4.901965
H         -5.119072      -3.533151      -4.769697
H         -8.395398      -7.957514      -1.708414
H         -8.717267      -6.492279      -2.529898
H         -7.928312      -5.294534      -1.535560
