%chk=part1_2_3.chk
%nproc=6
# hf/3-21g force 

Part[1, 2, 3]Frag

0 1
H         -0.848000      -1.556000      -4.170000
H          0.124000      -3.428000      -3.719000
H          0.792000      -2.684000      -2.600000
H         -1.863000      -1.448000       3.325000
H         -1.486000      -0.969000       1.931000
O          0.667000      -3.568000      -2.888000
O         -0.928000       1.416000      -1.670000
H         -0.895000       2.195000      -2.191000
H         -0.534000      -1.030000      -0.378000
H         -3.255000       1.494000       1.616000
H         -2.916000       2.034000       0.266000
O         -2.695000       1.298000       0.849000
O         -1.244000      -2.275000      -4.634000
O         -2.189000      -1.319000       2.442000
H         -1.118000       0.133000       0.430000
O         -0.309000      -0.401000       0.326000
H         -0.669000       1.706000      -0.819000
H         -2.212000      -2.105000      -4.610000

